(set-option :auto-config true)
(declare-const BAV1 Bool)
(set-option :produce-models true)
(declare-fun x () Int)
(declare-fun y () Int)
(assert (> x y))
(assert (= BAV1 (> x y)))
(check-sat)
(get-model)
(exit)